NAME: random-12-24505
TYPE: TSP
COMMENT: size=12 seed=24505
DIMENSION: 26
EDGE_WEIGHT_TYPE: EUC_2D
NODE_COORD_SECTION
+0 535 464
-0 535 464
+1 65 205
-1 376 545
+2 153 157
-2 341 309
+3 246 201
-3 865 955
+4 573 509
-4 635 921
+5 205 982
-5 541 685
+6 255 101
-6 304 862
+7 562 421
-7 356 111
+8 703 374
-8 111 844
+9 601 100
-9 0 661
+10 44 541
-10 389 60
+11 570 918
-11 874 642
+12 716 267
-12 551 483
PRECEDENCE_SECTION
+0 -0
+1 -1
+2 -2
+3 -3
+4 -4
+5 -5
+6 -6
+7 -7
+8 -8
+9 -9
+10 -10
+11 -11
+12 -12
EOF
